/*********************************************
 * OPL 12.6.0.0 Data
 * Author: Administrator
 * Creation Date: 16-11-2017 at 17:08:39
 *********************************************/

ZMIENNE = {"z1", "z2"};
l = 3;
n = 5;
m = 2;

macierz = [[][][][][]]
c = [1 3];
A = [[-1 1] [1 1]];
b = [1 2];